; Automatically generated by map2smt

(set-logic HORN)




(declare-fun new4 (Bool Int) Bool)
(declare-fun new2 (Int Int Bool) Bool)
(declare-fun new1 (Int Int Int Int Bool) Bool)
(declare-fun ff () Bool)

(assert
  (forall ( (A Bool) (B Int) )
    (=>
      (and
        (= A true)
        (>= B 0)
      )
      (new4 A B)
    )
  )
)
(assert
  (forall ( (A Bool) (B Int) )
    (=>
      (and
        (= A true)
        (>= B 0)
        (= B 0)
      )
      (new4 A B)
    )
  )
)
(assert
  (forall ( (A Bool) (B Int) (C Int) )
    (=>
      (and
        (>= C 0)
        (>= B 0)
        (= B (+ 1 C))
        (new4 A C)
      )
      (new4 A B)
    )
  )
)
(assert
  (forall ( (A Int) (B Int) (C Bool) )
    (=>
      (and
        (= C true)
        (>= A 0)
        (= B 0)
      )
      (new2 A B C)
    )
  )
)
(assert
  (forall ( (A Int) (B Int) (C Bool) )
    (=>
      (and
        (= C true)
        (>= A 0)
        (= B 0)
      )
      (new2 A B C)
    )
  )
)
(assert
  (forall ( (A Int) (B Int) (C Bool) )
    (=>
      (and
        (= C true)
        (>= A 0)
        (= B 0)
        (= A 0)
      )
      (new2 A B C)
    )
  )
)
(assert
  (forall ( (A Int) (B Int) (C Bool) )
    (=>
      (and
        (= C true)
        (>= A 0)
        (= B 0)
        (= A 0)
      )
      (new2 A B C)
    )
  )
)
(assert
  (forall ( (A Int) (B Int) (C Bool) (D Int) )
    (=>
      (and
        (>= D 0)
        (>= A 0)
        (= B 0)
        (= A (+ 1 D))
        (new4 C D)
      )
      (new2 A B C)
    )
  )
)
(assert
  (forall ( (A Int) (B Int) (C Int) (D Bool) )
    (=>
      (and
        (= D true)
        (>= B 0)
        (>= A 0)
        (= C (+ A B))
      )
      (new1 A B C A D)
    )
  )
)
(assert
  (forall ( (A Int) (B Int) (C Int) (D Bool) )
    (=>
      (and
        (= D true)
        (>= B 0)
        (>= A 0)
        (= A 0)
        (= C (+ A B))
      )
      (new1 A B C A D)
    )
  )
)
(assert
  (forall ( (A Int) (B Int) (C Int) (D Bool) )
    (=>
      (and
        (= D true)
        (>= B 0)
        (>= A 0)
        (= C (+ A B))
        (= B 0)
      )
      (new1 A B C A D)
    )
  )
)
(assert
  (forall ( (A Int) (B Int) (C Int) (D Bool) )
    (=>
      (and
        (= D true)
        (>= B 0)
        (>= A 0)
        (= A 0)
        (= C (+ A B))
        (= B 0)
      )
      (new1 A B C A D)
    )
  )
)
(assert
  (forall ( (A Int) (B Int) (C Int) (D Bool) )
    (=>
      (and
        (= D true)
        (>= B 0)
        (>= A 0)
        (= C (+ A B))
        (= C 0)
      )
      (new1 A B C A D)
    )
  )
)
(assert
  (forall ( (A Int) (B Int) (C Int) (D Bool) )
    (=>
      (and
        (= D true)
        (>= B 0)
        (>= A 0)
        (= A 0)
        (= C (+ A B))
        (= C 0)
      )
      (new1 A B C A D)
    )
  )
)
(assert
  (forall ( (A Int) (B Int) (C Int) (D Bool) )
    (=>
      (and
        (= D true)
        (>= B 0)
        (>= A 0)
        (= C (+ A B))
        (= C 0)
        (= B 0)
      )
      (new1 A B C A D)
    )
  )
)
(assert
  (forall ( (A Int) (B Int) (C Int) (D Bool) )
    (=>
      (and
        (= D true)
        (>= B 0)
        (>= A 0)
        (= A 0)
        (= C (+ A B))
        (= C 0)
        (= B 0)
      )
      (new1 A B C A D)
    )
  )
)
(assert
  (forall ( (A Int) (B Int) (C Int) (D Bool) )
    (=>
      (and
        (>= B 0)
        (>= A 0)
        (= C (+ A B))
        (= A 0)
        (new2 B A D)
      )
      (new1 A B C A D)
    )
  )
)
(assert
  (forall ( (A Int) (B Int) (C Int) (D Bool) (E Int) (F Int) (G Int) )
    (=>
      (and
        (>= E 0)
        (>= F 0)
        (>= G 0)
        (>= B 0)
        (>= A 0)
        (= A (+ 1 E))
        (= C (+ 1 F))
        (= C (+ A B))
        (= A (+ 1 G))
        (new1 G B F E D)
      )
      (new1 A B C A D)
    )
  )
)
(assert
  (forall ( (A Bool) (B Int) (C Int) (D Int) )
    (=>
      (and
        (= A false)
        (>= B 0)
        (>= C 0)
        (= (+ B C) D)
        (new1 C B D C A)
      )
      ff
    )
  )
)

(assert (not ff))
(check-sat)
